
  17    4
  10   10   10   10

   0   0   0   0   0   4 2 3 4 16 
   4  10  10  10  10   2 6 5 
  10  10  10  10  10   4 15 12 9 8 
   2  10  10  10  10   2 9 5 
   8  10  10  10  10   3 15 12 10 
  10  10  10  10  10   2 15 7 
   1  10  10  10  10   2 11 9 
   8  10  10  10  10   2 14 10 
   5  10  10  10  10   2 14 13 
   6  10  10  10  10   1 11 
   5  10  10  10  10   1 13 
   9  10  10  10  10   1 14 
   5  10  10  10  10   1 17
   3  10  10  10  10   1 17
   7  10  10  10  10   1 17
   2  10  10  10  10   1 17
   0   0   0   0   0   0 
